NAME          COPTPROB
OBJSENSE
  MIN
ROWS
 N  __OBJ___
 L  C120    
 L  C134    
 L  C140    
 L  C162    
 L  C189    
COLUMNS
    MARKER    'MARKER'                 'INTORG'
    x408      __OBJ___  53
    x408      C120      -1
    x408      C189      -1
    x416      __OBJ___  24
    x416      C134      -1
    x655      __OBJ___  29
    x655      C120      -1
    x655      C134      -1
    x1020     __OBJ___  29
    x1020     C140      -1
    x2283     __OBJ___  82
    x2283     C162      -1
    x2283     C189      -1
    x2686     __OBJ___  49
    x2686     C134      -1
    x2686     C140      -1
    x3060     __OBJ___  60
    x3060     C140      -1
    x3060     C162      -1
    x3824     __OBJ___  39
    x3824     C162      -1
    x3968     __OBJ___  17
    x3968     C120      -1
    MARKER    'MARKER'                 'INTEND'
RHS
    RHS       __OBJ___  -2220
    RHS       C120      -1
    RHS       C134      -1
    RHS       C140      -1
    RHS       C162      -1
    RHS       C189      -1
BOUNDS
 UP BOUND     x408      1
 UP BOUND     x416      1
 UP BOUND     x655      1
 UP BOUND     x1020     1
 UP BOUND     x2283     1
 UP BOUND     x2686     1
 UP BOUND     x3060     1
 UP BOUND     x3824     1
 UP BOUND     x3968     1
ENDATA
